3749 5627
6913 6461
8714 8199
3744 5472
4210 5610
4626 6217
8416 6113
7952 2552
3519 5201
3278 8107
659 1114
7914 2907
3676 5410
2583 7807
5173 5614
4161 6068
4751 6385
3252 2538
7158 2551
3804 7066
5503 8512
2492 7902
6777 4644
6042 5010
7401 3303
3200 6609
2628 6194
745 9908
4444 5589
8072 6363
4994 7725
2934 6358
5898 4342
3230 6280
3028 6682
6837 4282
8545 2308
4664 8246
3997 6416
6103 5281
4184 5427
4314 4832
6965 5871
8047 5820
6300 2982
4832 3818
4832 5441
4874 3714
4891 5493
6278 3418
